186 142 154 78 109 151 13 196 169 87 155 4 140 141 46 14 62 26 23 132 47 15 101 163 91 165 193 88 96 39 117 182 77 102 131 97 192 37 50 9 145 189 31 168 175 22 152 190 79 159 44 57 174 63 64 6 66 198 86 138 33 5 121 100 194 120 73 75 183 20 118 70 34 52 124 167 45 128 127 11 133 98 16 143 116 82 136 56 18 40 199 68 51 85 80 89 129 28 65 58 166 157 43 180 108 67 55 111 21 69 171 104 130 150 162 61 17 94 195 160 185 29 54 112 177 188 90 81 8 172 110 146 164 49 187 59 179 148 27 105 125 170 126 10 7 53 181 92 25 161 48 60 95 144 134 19 99 156 0 38 178 30 135 1 176 84 153 147 3 115 93 12 197 71 76 72 24 149 191 83 123 103 113 114 2 122 137 41 173 32 184 42 106 36 119 158 35 139 74 107